SPARKNaCl/why3-z3/sparknacl-cryptobox.ads_108_28_range_check4_1.smt2
;; produced by z3_gnatprove.drv ;;
(set-info :smt-lib-version 2.5)
(set-info :source |VC generated by SPARK 2014|)
(set-info :category industrial)
(set-info :status unknown)
;;; generated by SMT-LIB2 driver
;;; SMT-LIB2 driver: bit-vectors, common part
;;; SMT-LIB2: integer arithmetic
(declare-sort byte 0)

;; "to_rep"
(declare-fun to_rep (byte) (_ BitVec 8))

;; "of_rep"
(declare-fun of_rep ((_ BitVec 8)) byte)

;; "inversion_axiom"
(assert
  (forall ((x byte)) (! (= (of_rep (to_rep x)) x) :pattern ((to_rep x)) )))

;; "range_axiom"
(assert true)

;; "coerce_axiom"
(assert
  (forall ((x (_ BitVec 8)))
    (! (= (to_rep (of_rep x)) x) :pattern ((to_rep (of_rep x))) )))

(declare-sort map1 0)

(declare-datatypes ()
  ((map__ref (map__refqtmk (map__content map1)))))

;; "has_bounds"
(declare-fun has_bounds (map1
  Int
  Int) Bool)

;; "get"
(declare-fun get (map1
  Int) byte)

(declare-datatypes ()
  ((us_split_fields
   (us_split_fieldsqtmk
   (rec__ada___sparknacl__cryptobox__public_key__f map1)))))

(declare-datatypes ()
  ((us_rep (us_repqtmk (us_split_fields1 us_split_fields)))))

;; "dynamic_invariant"
(define-fun dynamic_invariant ((temp___expr_283 us_rep) (temp___is_init_279 Bool) (temp___skip_constant_280 Bool) (temp___do_toplevel_281 Bool) (temp___do_typ_inv_282 Bool)) Bool
  (has_bounds
    (rec__ada___sparknacl__cryptobox__public_key__f
      (us_split_fields1 temp___expr_283))
    0
    31))

(declare-datatypes ()
  ((us_split_fields2
   (us_split_fieldsqtmk1
   (rec__ada___sparknacl__cryptobox__secret_key__f map1)))))

(declare-datatypes ()
  ((us_rep1 (us_repqtmk1 (us_split_fields3 us_split_fields2)))))

;; "dynamic_invariant"
(define-fun dynamic_invariant1 ((temp___expr_272 us_rep1) (temp___is_init_268 Bool) (temp___skip_constant_269 Bool) (temp___do_toplevel_270 Bool) (temp___do_typ_inv_271 Bool)) Bool
  (has_bounds
    (rec__ada___sparknacl__cryptobox__secret_key__f
      (us_split_fields3 temp___expr_272))
    0
    31))

(declare-sort us_main_type 0)

(declare-datatypes ()
  ((us_split_fields4
   (us_split_fieldsqtmk2
   (rec__ada___sparknacl__core__salsa20_key us_main_type)))))

(declare-datatypes ()
  ((us_split_fields__ref
   (us_split_fields__refqtmk (us_split_fields__content us_split_fields4)))))

(declare-sort tinteger_32B 0)

;; "tinteger_32B'int"
(declare-fun tinteger_32Bqtint (tinteger_32B) Int)

;; "tinteger_32B'axiom"
(assert
  (forall ((i tinteger_32B))
    (and
      (<= (- 2147483648) (tinteger_32Bqtint i))
      (<= (tinteger_32Bqtint i) 2147483647))))

;; "in_range"
(define-fun in_range ((x Int)) Bool
  (and (<= (- 2147483648) x) (<= x 2147483647)))

;; "to_rep"
(define-fun to_rep1 ((x tinteger_32B)) Int
  (tinteger_32Bqtint x))

;; "of_rep"
(declare-fun of_rep1 (Int) tinteger_32B)

;; "inversion_axiom"
(assert
  (forall ((x tinteger_32B))
    (! (= (of_rep1 (to_rep1 x)) x) :pattern ((to_rep1 x)) )))

;; "range_axiom"
(assert
  (forall ((x tinteger_32B))
    (! (in_range (to_rep1 x)) :pattern ((to_rep1 x)) )))

;; "coerce_axiom"
(assert
  (forall ((x Int))
    (! (=> (in_range x) (= (to_rep1 (of_rep1 x)) x)) :pattern ((to_rep1
                                                                 (of_rep1 x))) )))

;; "in_range"
(define-fun in_range1 ((x Int)) Bool
  (and (<= 0 x) (<= x 2147483647)))

(declare-datatypes ()
  ((t (tqtmk (rec__first tinteger_32B)(rec__last tinteger_32B)))))

;; "mk"
(declare-fun mk (Int
  Int) t)

;; "mk_def"
(assert
  (forall ((f Int) (l Int))
    (! (=>
         (in_range f)
         (=>
           (in_range l)
           (and
             (= (to_rep1 (rec__first (mk f l))) f)
             (= (to_rep1 (rec__last (mk f l))) l)))) :pattern ((mk f l)) )))

;; "dynamic_property"
(define-fun dynamic_property ((range_first Int) (range_last Int) (low Int) (high Int)) Bool
  (and
    (in_range low)
    (and
      (in_range high)
      (=> (<= low high) (and (in_range1 low) (in_range1 high))))))

(declare-datatypes ()
  ((us_t (us_tqtmk (elts map1)(rt t)))))

;; "of_array"
(define-fun of_array ((a map1) (f Int) (l Int)) us_t
  (us_tqtmk a (mk f l)))

;; "first"
(define-fun first ((a us_t)) Int
  (to_rep1 (rec__first (rt a))))

;; "last"
(define-fun last ((a us_t)) Int
  (to_rep1 (rec__last (rt a))))

;; "length"
(define-fun length ((a us_t)) Int
  (ite (<= (first a) (last a)) (+ (- (last a) (first a)) 1) 0))

;; "well_formed"
(define-fun well_formed ((a us_t)) Bool
  (has_bounds
    (elts a)
    (to_rep1 (rec__first (rt a)))
    (to_rep1 (rec__last (rt a)))))

(declare-const zero_bytes_32 map1)

(declare-const zero_bytes_16 map1)

;; "dynamic_invariant"
(define-fun dynamic_invariant2 ((temp___expr_249 us_t) (temp___is_init_245 Bool) (temp___skip_constant_246 Bool) (temp___do_toplevel_247 Bool) (temp___do_typ_inv_248 Bool)) Bool
  (and
    (=>
      (not (= temp___skip_constant_246 true))
      (dynamic_property
        0
        2147483647
        (first temp___expr_249)
        (last temp___expr_249)))
    (well_formed temp___expr_249)))

(declare-const m__first tinteger_32B)

(declare-const m__last tinteger_32B)

(declare-const c us_t)

(declare-const n map1)

(declare-const sender_pk us_rep)

(declare-const recipient_sk us_rep1)

;; "sparknacl__zero_bytes_32__aggregate_def"
(declare-fun sparknacl__zero_bytes_32__aggregate_def ((_ BitVec 8)) map1)

;; "sparknacl__zero_bytes_16__aggregate_def"
(declare-fun sparknacl__zero_bytes_16__aggregate_def ((_ BitVec 8)) map1)

;; "zero_bytes_32__def_axiom"
(assert
  (= zero_bytes_32 (let ((temp___178 (sparknacl__zero_bytes_32__aggregate_def
                                       #x00)))
                     (let ((temp___179 temp___178)) temp___179))))

;; "def_axiom"
(assert
  (forall ((temp___174 (_ BitVec 8)))
    (let ((temp___175 (sparknacl__zero_bytes_32__aggregate_def temp___174)))
      (and
        (has_bounds temp___175 0 31)
        (forall ((temp___176 Int))
          (! (=>
               (and (<= 0 temp___176) (<= temp___176 31))
               (= (to_rep (get temp___175 temp___176)) temp___174)) :pattern (
          (get
            temp___175
            temp___176)) ))))))

;; "zero_bytes_16__def_axiom"
(assert
  (= zero_bytes_16 (let ((temp___184 (sparknacl__zero_bytes_16__aggregate_def
                                       #x00)))
                     (let ((temp___185 temp___184)) temp___185))))

;; "def_axiom"
(assert
  (forall ((temp___180 (_ BitVec 8)))
    (let ((temp___181 (sparknacl__zero_bytes_16__aggregate_def temp___180)))
      (and
        (has_bounds temp___181 0 15)
        (forall ((temp___182 Int))
          (! (=>
               (and (<= 0 temp___182) (<= temp___182 15))
               (= (to_rep (get temp___181 temp___182)) temp___180)) :pattern (
          (get
            temp___181
            temp___182)) ))))))

(declare-const m map1)

(declare-const status Bool)

(declare-const k__split_fields us_main_type)

;; "k__split_fields'unused"
(define-fun k__split_fieldsqtunused () us_split_fields__ref
  (us_split_fields__refqtmk (us_split_fieldsqtmk2 k__split_fields)))

;; "m'unused"
(define-fun mqtunused () map__ref
  (map__refqtmk m))

;; "Assume"
(assert (has_bounds zero_bytes_16 0 15))

(declare-const temp___949 map1)

;; "H"
(assert (has_bounds temp___949 0 15))

;; "H"
(assert
  (forall ((temp___183 Int))
    (! (=>
         (and (<= 0 temp___183) (<= temp___183 15))
         (= (to_rep (get temp___949 temp___183)) #x00)) :pattern ((get
                                                                    temp___949
                                                                    temp___183)) )))

;; "H"
(assert (= temp___949 (sparknacl__zero_bytes_16__aggregate_def #x00)))

;; "sparknacl__zero_bytes_16__aggregate_def'result'unused"
(define-fun sparknacl__zero_bytes_16__aggregate_defqtresultqtunused () map1
  temp___949)

;; "Assume"
(assert (= temp___949 zero_bytes_16))

;; "Assume"
(assert (has_bounds zero_bytes_32 0 31))

(declare-const temp___954 map1)

;; "H"
(assert (has_bounds temp___954 0 31))

;; "H"
(assert
  (forall ((temp___177 Int))
    (! (=>
         (and (<= 0 temp___177) (<= temp___177 31))
         (= (to_rep (get temp___954 temp___177)) #x00)) :pattern ((get
                                                                    temp___954
                                                                    temp___177)) )))

;; "H"
(assert (= temp___954 (sparknacl__zero_bytes_32__aggregate_def #x00)))

;; "sparknacl__zero_bytes_32__aggregate_def'result'unused"
(define-fun sparknacl__zero_bytes_32__aggregate_defqtresultqtunused () map1
  temp___954)

;; "Assume"
(assert (= temp___954 zero_bytes_32))

;; "Assume"
(assert
  (and
    (dynamic_property 0 2147483647 (to_rep1 m__first) (to_rep1 m__last))
    (well_formed (of_array m (to_rep1 m__first) (to_rep1 m__last)))))

;; "Assume"
(assert (dynamic_invariant2 c true false true true))

;; "Assume"
(assert (has_bounds n 0 23))

;; "Assume"
(assert (dynamic_invariant sender_pk true false true true))

;; "Assume"
(assert (dynamic_invariant1 recipient_sk true false true true))

;; "o"
(define-fun o () Int
  (length c))

;; "length'result'unused"
(define-fun lengthqtresultqtunused () Int
  o)

;; "o"
(define-fun o1 () Bool
  (ite (<= 32 o) true false))

;; "infix >='result'unused"
(define-fun infix_gteqqtresultqtunused () Bool
  o1)

;; "o"
(define-fun o2 () Int
  (last c))

;; "last'result'unused"
(define-fun lastqtresultqtunused () Int
  o2)

(declare-const o3 Int)

;; "Ensures"
(assert (= (to_rep1 m__last) o3))

;; "to_rep'result'unused"
(define-fun to_repqtresultqtunused () Int
  o3)

(declare-const o4 Int)

;; "Ensures"
(assert (= (to_rep1 m__first) o4))

;; "to_rep'result'unused"
(define-fun to_repqtresultqtunused1 () Int
  o4)

;; "map__content'result'unused"
(define-fun map__contentqtresultqtunused () map1
  m)

;; "of_array'result'unused"
(define-fun of_arrayqtresultqtunused () us_t
  (of_array m o4 o3))

(declare-const o5 Int)

;; "Ensures"
(assert (= (to_rep1 m__last) o5))

;; "to_rep'result'unused"
(define-fun to_repqtresultqtunused2 () Int
  o5)

;; "o"
(define-fun o6 () Bool
  (ite (= o5 o2) true false))

;; "infix ='result'unused"
(define-fun infix_eqqtresultqtunused () Bool
  o6)

;; "o"
(define-fun o7 () Int
  (first c))

;; "first'result'unused"
(define-fun firstqtresultqtunused () Int
  o7)

;; "o"
(define-fun o8 () Bool
  (ite (= o7 0) true false))

;; "infix ='result'unused"
(define-fun infix_eqqtresultqtunused1 () Bool
  o8)

(declare-const o9 Int)

;; "Ensures"
(assert (= (to_rep1 m__last) o9))

;; "to_rep'result'unused"
(define-fun to_repqtresultqtunused3 () Int
  o9)

(declare-const o10 Int)

;; "Ensures"
(assert (= (to_rep1 m__first) o10))

;; "to_rep'result'unused"
(define-fun to_repqtresultqtunused4 () Int
  o10)

;; "map__content'result'unused"
(define-fun map__contentqtresultqtunused1 () map1
  m)

;; "of_array'result'unused"
(define-fun of_arrayqtresultqtunused1 () us_t
  (of_array m o10 o9))

(declare-const o11 Int)

;; "Ensures"
(assert (= (to_rep1 m__first) o11))

;; "to_rep'result'unused"
(define-fun to_repqtresultqtunused5 () Int
  o11)

;; "o"
(define-fun o12 () Bool
  (ite (= o11 0) true false))

;; "infix ='result'unused"
(define-fun infix_eqqtresultqtunused2 () Bool
  o12)

;; "o"
(define-fun o13 () Bool
  (and o12 o8))

;; "andb'result'unused"
(define-fun andbqtresultqtunused () Bool
  o13)

;; "o"
(define-fun o14 () Bool
  (and o13 o6))

;; "andb'result'unused"
(define-fun andbqtresultqtunused1 () Bool
  o14)

;; "o"
(define-fun o15 () Bool
  (and o14 o1))

;; "andb'result'unused"
(define-fun andbqtresultqtunused2 () Bool
  o15)

;; "H"
(assert (= o15 true))

;; "o"
(define-fun o16 () us_t
  (of_array zero_bytes_16 0 15))

;; "of_array'result'unused"
(define-fun of_arrayqtresultqtunused2 () us_t
  o16)

;; "H"
(assert (<= 0 15))

;; Goal "def'vc"
;; File "sparknacl-cryptobox.ads", line 97, characters 0-0
(assert
  (not (<= 15 (last c))))

(check-sat)
